#initialization
units metal
variable inf equal 1000
dimension 3
boundary p p s
#atom definition
lattice fcc 3.52
region MD block 0 10 0 10 0 142 
region FE block 0 10 0 10 0 142 
create_box 1 MD
create_atoms 1 region MD
mass * 58.6
#set potential
pair_style morse 2.2
pair_coeff * * 0.4279  1.3917  2.793
#pair_style lj/cut 2.1
#pair_coeff * * 0.2  0.9
neighbor 0.3 bin
neigh_modify every 10 delay 0 check yes
dump 1 all atom 100 dump.laser
group internal region MD
timestep 0.001
thermo 10
thermo_style custom step temp
velocity internal create 300 1234156
fix 1 internal nve
unfix 1
#ttm-md coupling
fix AtC internal atc two_temperature Ni_ttm.mat
fix_modify AtC mesh create 1 1 8 FE p p f
fix_modify AtC mesh create_faceset bndy box 0 10 0 10 0 142

fix_modify AtC control thermal flux faceset bndy
fix_modify AtC initial temperature all 300
fix_modify AtC initial electron_temperature all 300
variable c_e equal c*electron_temperature


#add laser source

#fix_modify AtC  source electron_temperature all 6000.0
fix_modify AtC mesh create_nodeset bottom -INF INF -INF INF 0 2
fix_modify AtC fix temperature bottom 300
fix_modify AtC fix_flux electron_temperature bndy 26.875
fix_modify AtC extrinsic exchange on


run 200
fix_modify AtC unfix_flux electron_temperature bndy * *
fix_modify AtC equilibrium_start on
run 18000
